
******************************************************************************
This program contains Ipopt, a library for large-scale nonlinear optimization.
 Ipopt is released as open source code under the Eclipse Public License (EPL).
         For more information visit http://projects.coin-or.org/Ipopt
******************************************************************************

This is Ipopt version 3.12.6, running with linear solver ma57.

Number of nonzeros in equality constraint Jacobian...:    59696
Number of nonzeros in inequality constraint Jacobian.:        0
Number of nonzeros in Lagrangian Hessian.............:    29403

Total number of variables............................:    20002
                     variables with only lower bounds:        0
                variables with lower and upper bounds:    20002
                     variables with only upper bounds:        0
Total number of equality constraints.................:    10197
Total number of inequality constraints...............:        0
        inequality constraints with only lower bounds:        0
   inequality constraints with lower and upper bounds:        0
        inequality constraints with only upper bounds:        0

iter    objective    inf_pr   inf_du lg(mu)  ||d||  lg(rg) alpha_du alpha_pr  ls
   0 -4.8514951e+00 6.00e-02 1.80e-04  -1.0 0.00e+00    -  0.00e+00 0.00e+00   0
Reallocating memory for MA57: lfact (2082068)
   1 -4.8476069e+00 5.81e-02 4.59e-02  -1.0 3.21e+00    -  3.08e-02 3.08e-02f  1
   2 -4.8218159e+00 4.88e-02 1.11e+00  -1.0 1.24e+00    -  1.05e-01 1.61e-01f  1
   3 -4.8139882e+00 4.61e-02 3.17e+00  -1.0 1.18e+00    -  2.74e-02 5.52e-02h  1
   4 -4.8119254e+00 4.58e-02 8.29e+00  -1.0 2.77e+01    -  8.73e-04 5.17e-03f  1
   5 -4.8114453e+00 4.58e-02 2.08e+02  -1.0 2.91e+01    -  1.00e-02 1.17e-03f  1
   6 -4.8097323e+00 4.55e-02 1.42e+02  -1.0 3.29e+01    -  1.23e-03 5.80e-03f  1
   7 -4.8087723e+00 4.52e-02 3.19e+02  -1.0 6.97e+00    -  1.45e-02 6.25e-03f  1
Reallocating memory for MA57: lfact (2192281)
   8 -4.8080526e+00 4.50e-02 2.27e+03  -1.0 3.36e+00    -  5.87e-02 5.62e-03f  1
   9 -4.8022191e+00 4.23e-02 2.99e+03  -1.0 1.20e+00    -  7.79e-02 5.97e-02f  1
iter    objective    inf_pr   inf_du lg(mu)  ||d||  lg(rg) alpha_du alpha_pr  ls
  10 -4.7965343e+00 3.82e-02 1.95e+04  -1.0 1.12e+00    -  3.39e-01 9.79e-02h  1
Reallocating memory for MA57: lfact (2376557)
  11 -4.7967358e+00 3.57e-02 1.72e+04  -1.0 1.03e+00    -  5.98e-02 6.35e-02h  1
Reallocating memory for MA57: lfact (2603763)
  12 -4.7967521e+00 3.57e-02 1.28e+05  -1.0 9.89e-01    -  1.21e-01 7.48e-04h  1
  13 -4.7991350e+00 3.35e-02 4.71e+04  -1.0 1.00e+00    -  4.89e-04 6.07e-02h  1
Reallocating memory for MA57: lfact (2846021)
  14 -4.8004564e+00 3.31e-02 4.51e+05  -1.0 2.09e+00    -  6.54e-02 1.43e-02h  1
Reallocating memory for MA57: lfact (3082991)
  15 -4.8016051e+00 3.30e-02 1.59e+06  -1.0 9.43e+01    -  1.39e-03 5.60e-04h  1
  16 -4.8017445e+00 3.30e-02 1.12e+07  -1.0 1.76e+03    -  9.21e-05 2.00e-05h  1
  17r-4.8017445e+00 3.30e-02 1.00e+03  -1.0 0.00e+00    -  0.00e+00 1.38e-07R  2
  18r-4.7939460e+00 3.20e-02 9.93e+02  -1.0 5.91e+01    -  2.10e-02 2.97e-03f  1
  19r-4.7673551e+00 2.81e-02 9.84e+02  -1.0 2.00e+01    -  3.70e-02 9.77e-03f  1
iter    objective    inf_pr   inf_du lg(mu)  ||d||  lg(rg) alpha_du alpha_pr  ls
  20 -4.7673547e+00 2.81e-02 1.24e+05  -1.0 5.42e-01    -  3.67e-01 3.79e-06f  1
  21r-4.7673547e+00 2.81e-02 9.99e+02  -1.0 0.00e+00    -  0.00e+00 3.92e-07R  5
  22r-4.7490397e+00 2.47e-02 9.78e+02  -1.0 6.18e+00    -  4.07e-02 1.84e-02f  1
  23 -4.7490392e+00 2.47e-02 4.79e+04  -1.0 6.55e-01    -  2.04e-01 5.47e-06f  1
  24 -4.7490484e+00 2.47e-02 1.90e+07  -1.0 8.97e-01    -  1.18e-01 3.03e-04h  1
  25 -4.7487536e+00 2.47e-02 1.41e+09  -1.0 2.19e+00    -  7.85e-02 1.05e-03h  1
  26r-4.7487536e+00 2.47e-02 1.00e+03  -1.0 0.00e+00    -  0.00e+00 4.91e-07R  3
  27r-4.7265611e+00 2.05e-02 9.71e+02  -1.0 5.89e+00    -  1.07e-01 2.29e-02f  1
  28 -4.7265607e+00 2.05e-02 3.04e+04  -1.0 6.94e-01    -  1.58e-01 6.68e-06f  1
  29r-4.7265607e+00 2.05e-02 9.99e+02  -1.0 0.00e+00    -  0.00e+00 2.80e-07R  6
iter    objective    inf_pr   inf_du lg(mu)  ||d||  lg(rg) alpha_du alpha_pr  ls
  30r-4.6956961e+00 1.46e-02 9.48e+02  -1.0 4.38e+00    -  1.91e-01 4.26e-02f  1
  31 -4.6956956e+00 1.46e-02 1.05e+04  -1.0 7.42e-01    -  1.06e-01 1.31e-05f  1
  32 -4.6957285e+00 1.46e-02 1.42e+06  -1.0 9.83e-01    -  1.53e-01 1.50e-03h  1
  33 -4.6959678e+00 1.45e-02 8.51e+07  -1.0 1.69e+00    -  1.10e-01 1.84e-03h  1
  34 -4.6959862e+00 1.45e-02 1.29e+10  -1.0 4.32e+01    -  4.64e-03 3.08e-05h  1
  35 -4.6960708e+00 7.01e-03 4.71e+07  -1.0 3.12e-02   6.0 9.96e-01 6.16e-01f  1
  36r-4.6960708e+00 7.01e-03 1.00e+03  -1.0 0.00e+00    -  0.00e+00 2.47e-07R  2
  37r-4.6689793e+00 3.91e-03 9.57e+02  -1.0 4.23e+00    -  1.42e-01 2.52e-02f  1
  38 -4.6689793e+00 3.91e-03 2.12e+04  -1.0 7.19e-01    -  1.22e-01 7.37e-06f  1
  39r-4.6689793e+00 3.91e-03 9.99e+02  -1.0 0.00e+00    -  0.00e+00 3.83e-07R  5
iter    objective    inf_pr   inf_du lg(mu)  ||d||  lg(rg) alpha_du alpha_pr  ls
  40r-4.6415714e+00 3.99e-03 9.20e+02  -1.0 1.93e+00    -  2.32e-01 5.88e-02f  1
  41r-4.5609276e+00 3.52e-03 7.58e+02  -1.0 1.80e+00    -  1.19e-01 1.77e-01f  1
  42 -4.5609377e+00 3.52e-03 6.41e+03  -1.0 5.06e-01    -  4.66e-01 9.67e-05h  1
  43 -4.5612276e+00 3.51e-03 2.29e+04  -1.0 7.14e-01    -  6.71e-03 2.01e-03h  1
  44 -4.5630195e+00 3.47e-03 9.09e+04  -1.0 7.10e-01    -  2.97e-02 1.19e-02h  1
  45 -4.5642171e+00 3.45e-03 3.20e+05  -1.0 1.28e+00    -  1.44e-02 5.86e-03h  1
  46 -4.5646178e+00 3.44e-03 1.13e+07  -1.0 9.16e+00    -  1.99e-02 9.59e-04h  1
  47 -4.5647004e+00 3.44e-03 2.35e+08  -1.0 2.57e+02    -  7.35e-04 3.73e-05h  1
Reallocating memory for MA57: lfact (3242853)
WARNING: Problem in step computation; switching to emergency mode.
  48r-4.5647004e+00 3.44e-03 1.00e+03  -1.0 0.00e+00    -  0.00e+00 0.00e+00R  1
  49r-4.5110891e+00 1.22e-03 7.95e+02  -1.0 3.67e+00    -  2.05e-01 1.96e-01f  1
iter    objective    inf_pr   inf_du lg(mu)  ||d||  lg(rg) alpha_du alpha_pr  ls
  50 -4.5110984e+00 1.22e-03 2.14e+04  -1.0 3.40e-01    -  9.52e-01 5.70e-05f  1
  51 -4.5111028e+00 1.22e-03 3.10e+08  -1.0 1.16e+00    -  4.26e-01 2.91e-05h  1
  52 -4.5110978e+00 1.55e-02 3.10e+08  -1.0 1.38e+01    -  3.28e-04 3.28e-04s 11
  53r-4.5110978e+00 1.55e-02 1.00e+03  -1.0 0.00e+00    -  0.00e+00 0.00e+00R  1
  54r-4.5094346e+00 3.74e-03 9.16e+02  -1.0 2.48e+00    -  3.16e-01 6.55e-03f  1
  55 -4.5094349e+00 3.74e-03 6.40e+05  -1.0 3.41e-01    -  9.52e-01 1.90e-06f  1
  56r-4.5094349e+00 3.74e-03 1.00e+03  -1.0 0.00e+00    -  0.00e+00 2.87e-07R  5
  57r-4.5041029e+00 1.22e-03 8.90e+02  -1.0 3.13e+00    -  2.71e-01 3.18e-02f  1
  58 -4.5041045e+00 1.22e-03 1.31e+05  -1.0 3.40e-01    -  9.52e-01 9.28e-06f  1
  59 -4.5041352e+00 1.22e-03 9.86e+07  -1.0 2.03e+00    -  9.24e-02 1.22e-04h  1
iter    objective    inf_pr   inf_du lg(mu)  ||d||  lg(rg) alpha_du alpha_pr  ls
  60 -4.5041612e+00 1.22e-03 1.50e+10  -1.0 1.45e+01    -  1.43e-02 9.29e-05h  1
  61 -4.5041409e+00 1.17e-03 5.38e+07  -1.0 3.52e-03   5.5 9.96e-01 2.55e-01f  1
  62 -4.5040406e+00 1.13e-03 9.82e+04  -1.0 4.63e-03   5.0 1.00e+00 2.54e-01f  1
  63r-4.5040406e+00 1.13e-03 1.00e+03  -1.7 0.00e+00    -  0.00e+00 4.77e-07R  5
  64r-4.4902248e+00 1.14e-03 9.53e+02  -1.7 5.35e+00    -  1.36e-01 3.02e-02f  1
  65r-4.4551285e+00 1.24e-03 8.57e+02  -1.7 1.57e+00    -  2.12e-01 1.07e-01f  1
  66r-4.4462215e+00 1.70e-03 8.27e+02  -1.7 8.81e-01    -  1.12e-01 3.70e-02f  1
  67r-4.4418044e+00 1.85e-03 8.10e+02  -1.7 7.84e-01    -  9.79e-02 2.01e-02f  1
  68r-4.4360799e+00 1.89e-03 7.88e+02  -1.7 7.35e-01    -  8.51e-02 2.73e-02f  1
  69r-4.4303315e+00 1.80e-03 7.64e+02  -1.7 6.35e-01    -  8.52e-02 3.17e-02f  1
iter    objective    inf_pr   inf_du lg(mu)  ||d||  lg(rg) alpha_du alpha_pr  ls
  70r-4.4272657e+00 1.64e-03 7.49e+02  -1.7 5.52e-01    -  3.52e-02 1.93e-02f  1
  71r-4.4227206e+00 2.12e-03 7.23e+02  -1.7 4.72e-01    -  4.90e-02 3.42e-02f  1
  72r-4.4199101e+00 2.23e-03 7.06e+02  -1.7 4.24e-01    -  1.08e-01 2.33e-02f  1
  73r-4.4161848e+00 2.03e-03 6.85e+02  -1.7 4.30e-01    -  2.93e-02 2.96e-02f  1
  74r-4.4118704e+00 2.31e-03 6.87e+02  -1.7 3.87e-01    -  2.17e-02 3.81e-02f  1
  75r-4.4103984e+00 2.30e-03 7.06e+02  -1.7 3.02e-01    -  8.72e-02 1.72e-02f  1
  76r-4.4065663e+00 2.21e-03 6.61e+02  -1.7 3.24e-01    -  1.24e-02 4.05e-02f  1
  77r-4.4035619e+00 2.39e-03 6.91e+02  -1.7 3.23e-01    -  6.89e-02 3.13e-02f  1
  78r-4.4011178e+00 2.30e-03 6.15e+02  -1.7 3.64e-01    -  4.36e-02 2.12e-02f  1
  79r-4.3979712e+00 2.24e-03 5.57e+02  -1.7 2.14e-01    -  6.74e-02 5.34e-02f  1
iter    objective    inf_pr   inf_du lg(mu)  ||d||  lg(rg) alpha_du alpha_pr  ls
  80r-4.3962950e+00 2.36e-03 5.43e+02  -1.7 2.35e-01    -  4.87e-02 2.46e-02f  1
  81r-4.3924809e+00 2.48e-03 6.62e+02  -1.7 2.25e-01    -  1.90e-02 5.91e-02f  1
  82r-4.3895960e+00 2.43e-03 6.46e+02  -1.7 3.51e-01    -  2.15e-02 2.45e-02f  1
  83r-4.3893175e+00 2.44e-03 9.86e+02  -1.7 1.84e-01    -  7.35e-02 7.99e-03f  1
  84r-4.3850938e+00 2.31e-03 8.32e+02  -1.7 2.85e-01    -  4.72e-03 4.48e-02f  1
  85r-4.3847431e+00 2.32e-03 8.25e+02  -1.7 2.12e-01    -  5.82e-02 5.42e-03f  1
  86r-4.3815208e+00 2.22e-03 8.01e+02  -1.7 3.41e-01    -  5.66e-03 2.74e-02f  1
  87r-4.3811639e+00 2.22e-03 7.96e+02  -1.7 2.03e-01    -  8.49e-02 6.39e-03f  1
  88r-4.3753957e+00 2.00e-03 7.52e+02  -1.7 3.16e-01    -  4.69e-03 5.25e-02f  1
  89r-4.3746438e+00 2.01e-03 7.46e+02  -1.7 2.43e-01    -  6.94e-02 9.31e-03f  1
iter    objective    inf_pr   inf_du lg(mu)  ||d||  lg(rg) alpha_du alpha_pr  ls
  90r-4.3738344e+00 1.98e-03 7.39e+02  -1.7 2.54e-01    -  5.77e-02 9.33e-03f  1
  91r-4.3703608e+00 2.03e-03 6.85e+02  -1.7 2.34e-01    -  4.05e-02 7.37e-02f  1
  92r-4.3685536e+00 1.96e-03 6.74e+02  -1.7 3.14e-01    -  1.54e-02 1.60e-02f  1
  93r-4.3662958e+00 2.07e-03 6.48e+02  -1.7 2.36e-01    -  4.44e-02 3.77e-02f  1
  94r-4.3645687e+00 1.94e-03 6.35e+02  -1.7 2.47e-01    -  1.94e-03 1.98e-02f  1
  95r-4.3628558e+00 1.94e-03 6.11e+02  -1.7 2.39e-01    -  6.84e-02 3.78e-02f  1
  96r-4.3594018e+00 1.75e-03 5.89e+02  -1.7 2.59e-01    -  1.10e-02 3.68e-02f  1
  97r-4.3584142e+00 1.78e-03 5.78e+02  -1.7 2.45e-01    -  5.70e-02 1.79e-02f  1
  98r-4.3566090e+00 1.68e-03 5.61e+02  -1.7 2.52e-01    -  3.59e-03 2.93e-02f  1
  99r-4.3538278e+00 1.49e-03 5.31e+02  -1.7 2.50e-01    -  6.54e-02 5.46e-02f  1
iter    objective    inf_pr   inf_du lg(mu)  ||d||  lg(rg) alpha_du alpha_pr  ls
 100r-4.3514446e+00 1.12e-03 5.15e+02  -1.7 2.54e-01    -  3.61e-02 3.02e-02f  1
 101r-4.3495203e+00 9.60e-04 4.90e+02  -1.7 2.56e-01    -  6.71e-02 4.75e-02f  1
 102 -4.3495274e+00 9.60e-04 4.46e+04  -1.7 5.93e-01    -  8.79e-01 2.10e-05f  1
 103 -4.3496214e+00 9.59e-04 3.09e+06  -1.7 3.86e-01    -  2.14e-02 3.07e-04h  1
 104 -4.3496876e+00 9.59e-04 3.36e+08  -1.7 2.64e+00    -  2.27e-02 2.09e-04h  1
 105r-4.3496876e+00 9.59e-04 1.00e+03  -1.7 0.00e+00    -  0.00e+00 3.13e-07R  5
 106r-4.3491719e+00 1.00e-03 1.13e+03  -1.7 1.24e-01    -  1.82e-01 2.16e-02f  1
 107r-4.3436043e+00 7.97e-04 1.54e+03  -1.7 1.47e-01    -  1.42e-01 2.23e-01f  1
 108 -4.3436792e+00 7.97e-04 4.32e+03  -1.7 6.17e-01    -  8.74e-01 2.16e-04f  1
 109r-4.3436792e+00 7.97e-04 1.00e+03  -1.7 0.00e+00    -  0.00e+00 3.00e-07R  6
iter    objective    inf_pr   inf_du lg(mu)  ||d||  lg(rg) alpha_du alpha_pr  ls
 110r-4.3342760e+00 6.81e-04 7.88e+02  -1.7 1.14e-01    -  2.29e-01 3.73e-01f  1
 111 -4.3342868e+00 6.81e-04 3.05e+04  -1.7 6.28e-01    -  8.72e-01 3.06e-05h  1
 112 -4.3360183e+00 6.78e-04 8.07e+04  -1.7 9.13e-01    -  1.24e-02 4.78e-03h  1
 113 -4.3376341e+00 6.75e-04 4.92e+05  -1.7 1.92e+00    -  1.91e-02 4.31e-03h  1
 114 -4.3378904e+00 6.75e-04 1.14e+07  -1.7 1.86e+01    -  9.87e-03 5.56e-04h  1
 115 -4.3379031e+00 6.75e-04 7.89e+08  -1.7 2.01e+02    -  1.01e-03 1.54e-05h  1
 116 -4.3378965e+00 5.73e-04 1.96e+08  -1.7 8.24e-04   4.6 7.52e-01 1.61e-01f  1
 117r-4.3378965e+00 5.73e-04 1.00e+03  -1.7 0.00e+00    -  0.00e+00 2.72e-07R  2
 118r-4.3365848e+00 7.42e-04 1.14e+03  -1.7 2.34e-01    -  9.87e-02 1.25e-01f  1
 119r-4.3330427e+00 1.84e-04 9.79e+02  -1.7 2.39e-01    -  1.11e-01 1.96e-01f  1
iter    objective    inf_pr   inf_du lg(mu)  ||d||  lg(rg) alpha_du alpha_pr  ls
 120 -4.3330429e+00 1.84e-04 1.79e+06  -1.7 6.48e-01    -  7.69e-01 4.59e-07f  1
 121 -4.3330537e+00 1.84e-04 1.05e+09  -1.7 1.52e+00    -  1.96e-02 3.31e-05h  1
 122 -4.3312039e+00 1.62e-04 8.06e+08  -1.7 1.51e-01    -  2.34e-01 7.67e-02f  1
 123 -4.3311748e+00 1.61e-04 2.88e+08  -1.7 8.71e-02    -  6.42e-01 2.52e-03f  1
 124 -4.3311752e+00 1.61e-04 5.31e+08  -1.7 8.24e+00    -  2.30e-06 1.24e-06h  1
 125 -4.3311690e+00 6.81e-05 8.68e+01  -1.7 8.79e-04   5.0 1.00e+00 1.00e+00f  1
 126 -4.3311685e+00 6.06e-05 1.15e+04  -3.8 5.24e-04   5.4 9.46e-01 3.27e-01h  1
 127r-4.3311685e+00 6.06e-05 1.00e+03  -3.8 0.00e+00    -  0.00e+00 3.06e-07R  6
 128r-4.3301150e+00 1.26e-04 1.08e+03  -3.8 7.89e-01    -  1.75e-03 6.26e-03f  1
 129r-4.3277349e+00 5.69e-04 1.12e+03  -3.8 1.16e+00    -  1.11e-03 7.54e-03f  1
iter    objective    inf_pr   inf_du lg(mu)  ||d||  lg(rg) alpha_du alpha_pr  ls
 130r-4.3275856e+00 5.95e-04 1.04e+03  -3.8 5.87e-01    -  3.03e-02 1.03e-03f  1
 131r-4.3256548e+00 9.06e-04 1.47e+03  -3.8 2.31e-01    -  1.76e-01 3.54e-02f  1
 132r-4.3245499e+00 1.08e-03 1.01e+03  -3.8 4.26e-02    -  9.38e-03 2.12e-01f  1
 133r-4.3245722e+00 1.06e-03 1.00e+03  -3.8 3.78e-02    -  8.03e-04 2.31e-03f  1
 134r-4.3245755e+00 1.06e-03 2.21e+03  -3.8 3.78e-02    -  1.02e-01 5.26e-03f  1
 135r-4.3256322e+00 4.42e-04 1.95e+03  -3.8 3.94e-02    -  1.40e-03 6.13e-02f  1
 136r-4.3256429e+00 4.44e-04 1.88e+03  -3.8 2.12e-01    -  1.17e-02 1.11e-04f  1
 137r-4.3256315e+00 4.39e-04 1.03e+03  -3.8 3.82e-02    -  2.79e-01 3.09e-02f  1
 138r-4.3255318e+00 3.91e-04 1.84e+03  -3.8 4.24e-02    -  3.87e-03 4.09e-01f  1
 139r-4.3250038e+00 1.15e-04 1.82e+03  -3.8 1.45e-01    -  5.03e-04 7.51e-03f  1
iter    objective    inf_pr   inf_du lg(mu)  ||d||  lg(rg) alpha_du alpha_pr  ls
 140r-4.3249985e+00 1.15e-04 1.82e+03  -3.8 4.99e-02    -  3.35e-02 2.19e-04f  1
 141r-4.3249712e+00 1.15e-04 7.97e+02  -3.8 3.09e-02    -  9.82e-01 6.06e-01f  1
 142r-4.3249039e+00 1.15e-04 1.31e+01  -3.8 2.56e-02    -  5.40e-01 1.00e+00f  1
 143r-4.3235442e+00 1.16e-04 7.11e+00  -3.8 2.45e-03    -  1.50e-01 1.00e+00f  1
 144r-4.3185858e+00 1.17e-04 4.24e+00  -3.8 8.99e-03    -  2.26e-01 1.00e+00f  1
 145r-4.3008145e+00 1.23e-04 3.55e+00  -3.8 3.23e-02    -  3.07e-01 1.00e+00f  1
 146r-4.2600291e+00 1.36e-04 2.18e+00  -3.8 7.39e-02    -  5.30e-01 1.00e+00f  1
 147r-4.2256922e+00 1.46e-04 2.43e-02  -3.8 6.16e-02    -  9.91e-01 1.00e+00f  1
 148r-4.2057894e+00 1.53e-04 8.82e-08  -3.8 3.77e-02    -  1.00e+00 1.00e+00f  1
 149r-4.2937767e+00 1.27e-04 3.07e-02  -5.7 1.58e-01    -  9.61e-01 1.00e+00f  1
iter    objective    inf_pr   inf_du lg(mu)  ||d||  lg(rg) alpha_du alpha_pr  ls
 150r-4.2985624e+00 1.25e-04 1.13e-01  -5.7 2.48e-02    -  1.00e+00 3.91e-01h  1
 151r-4.2925317e+00 1.26e-04 2.51e-02  -5.7 2.46e-02    -  9.87e-01 9.35e-01f  1
 152r-4.2928792e+00 1.26e-04 1.58e-09  -5.7 5.76e-03    -  1.00e+00 1.00e+00f  1
 153r-4.3089901e+00 1.21e-04 1.02e-01  -8.6 3.17e-02    -  1.62e-01 7.05e-01f  1
 154r-4.3187895e+00 1.17e-04 8.41e-03  -8.6 1.39e-02    -  7.95e-01 1.00e+00f  1
 155r-4.3237484e+00 1.16e-04 4.77e-04  -8.6 1.05e-02    -  9.44e-01 1.00e+00h  1

Number of Iterations....: 155

                                   (scaled)                 (unscaled)
Objective...............:  -4.3247834089148203e+00   -4.3247834089148203e+00
Dual infeasibility......:   1.6720137009180813e-04    1.6720137009180813e-04
Constraint violation....:   1.1566543764729431e-04    1.1566543764729431e-04
Complementarity.........:   1.3979210896948499e-08    1.3979210896948499e-08
Overall NLP error.......:   1.6720137009180813e-04    1.6720137009180813e-04


Number of objective function evaluations             = 224
Number of objective gradient evaluations             = 87
Number of equality constraint evaluations            = 224
Number of inequality constraint evaluations          = 0
Number of equality constraint Jacobian evaluations   = 170
Number of inequality constraint Jacobian evaluations = 0
Number of Lagrangian Hessian evaluations             = 156
Total CPU secs in IPOPT (w/o function evaluations)   =     36.177
Total CPU secs in NLP function evaluations           =      1.257

EXIT: Converged to a point of local infeasibility. Problem may be infeasible.

************************ CUTEst statistics ************************


 Package used            :  IPOPT
 Problem                 :  CONT6-QQ  
 # variables             =           20002
 # constraints           =           10197
 # objective functions   =        0.3120000E+03
 # objective gradients   =        0.8800000E+02
 # objective Hessians    =        0.1430000E+03
 # Hessian-vector prdct  =        0.0000000E+00
 # constraints functions =        0.3960000E+03
 # constraints gradients =        0.1720000E+03
 # constraints Hessians  =        0.1430000E+03
 Exit code               =               2
 Final f                 =  -0.4324783E+01
 Set up time             =            0.32 seconds
 Solve time              =          100.29 seconds


******************************************************************

System Time =      25.0869998932 s.
